LAMMPS (7 Feb 2024 - Update 1)
# LAMMPS script for Morse particles with high alpha parameter
# Simulates a fluid starting from random configuration

# Initialization
units           lj
atom_style      atomic
dimension       3
boundary        p p p


variable        temp equal 2.0

# System definition
region          box block 0 30 0 30 0 30
create_box      1 box
Created orthogonal box = (0 0 0) to (30 30 30)
  1 by 2 by 5 MPI processor grid
create_atoms    1 random 5000 12345 box
Created 5000 atoms
  using lattice units in orthogonal box = (0 0 0) to (30 30 30)
  create_atoms CPU = 0.002 seconds

# Set mass
mass            1 1.0

# Morse potential parameters
# U(r) = D0 * [exp(-2*alpha*(r-r0)) - 2*exp(-alpha*(r-r0))]
# High alpha parameter for gel-like behavior
pair_style      morse 2.0
pair_coeff      1 1 1.0 30.0 1.0

# Initial velocity (low temperature for stability)
velocity        all create ${temp} 87287 dist gaussian
velocity        all create 2 87287 dist gaussian

# Neighbor list settings
neighbor        0.3 bin
neigh_modify    every 10 delay 0 check yes

# Energy minimization to remove overlaps
minimize        1.0e-4 1.0e-6 1000 10000
Switching to 'neigh_modify every 1 delay 0 check yes' setting during minimization
Generated 0 of 0 mixed pair_coeff terms from geometric mixing rule
Neighbor list info ...
  update: every = 1 steps, delay = 0 steps, check = yes
  max neighbors/atom: 2000, page size: 100000
  master list distance cutoff = 2.3
  ghost atom cutoff = 2.3
  binsize = 1.15, bins = 27 27 27
  1 neighbor lists, perpetual/occasional/extra = 1 0 0
  (1) pair morse, perpetual
      attributes: half, newton on
      pair build: half/bin/atomonly/newton
      stencil: half/bin/3d
      bin: standard
Per MPI rank memory allocation (min/avg/max) = 4.242 | 4.243 | 4.246 Mbytes
   Step          Temp          E_pair         E_mol          TotEng         Press     
         0   2              1.3436813e+21  0              1.3436813e+21  2.5693425e+20
        72   2             -0.55245186     0              2.4469481      0.36168154   
Loop time of 0.233825 on 10 procs for 72 steps with 5000 atoms

80.8% CPU use with 10 MPI tasks x no OpenMP threads

Minimization stats:
  Stopping criterion = energy tolerance
  Energy initial, next-to-last, final = 
    1.3436812568024e+21 -0.552451263807264 -0.552451859871958
  Force two-norm initial, final = 5.4120369e+26 514.77941
  Force max component initial, final = 3.6682242e+26 179.89795
  Final line search alpha, max atom move = 1.762681e-05 0.0031710268
  Iterations, force evaluations = 72 237

MPI task timing breakdown:
Section |  min time  |  avg time  |  max time  |%varavg| %total
---------------------------------------------------------------
Pair    | 0.0072634  | 0.011589   | 0.014926   |   2.1 |  4.96
Neigh   | 0.0037236  | 0.0062535  | 0.011359   |   3.0 |  2.67
Comm    | 0.082291   | 0.095632   | 0.10862    |   2.4 | 40.90
Output  | 0          | 0          | 0          |   0.0 |  0.00
Modify  | 0          | 0          | 0          |   0.0 |  0.00
Other   |            | 0.1204     |            |       | 51.47

Nlocal:            500 ave         521 max         467 min
Histogram: 1 0 2 0 0 0 2 1 3 1
Nghost:          837.6 ave         877 max         788 min
Histogram: 1 0 0 2 2 1 0 1 2 1
Neighs:           2373 ave        2669 max        2103 min
Histogram: 1 1 2 1 0 1 2 0 1 1

Total # of neighbors = 23730
Ave neighs/atom = 4.746
Neighbor list builds = 30
Dangerous builds = 0

# Reset velocities after minimization
velocity        all create ${temp} 87287 dist gaussian
velocity        all create 2 87287 dist gaussian

# Langevin dynamics (almost overdamped)
# langevin temp_start temp_stop damp seed
fix             1 all langevin ${temp} ${temp} 0.1 48279
fix             1 all langevin 2 ${temp} 0.1 48279
fix             1 all langevin 2 2 0.1 48279
fix             2 all nve

# Output settings
timestep        0.005

thermo_style    custom step temp pe ke etotal press density
thermo          100


# Run 3: 10000-100000 steps, dump every 1000 steps
dump            3 all custom 1000 trajectory-temp${temp}.lammpstrj id type x y z
dump            3 all custom 1000 trajectory-temp2.lammpstrj id type x y z
dump_modify     3 sort id
run             1000000
Generated 0 of 0 mixed pair_coeff terms from geometric mixing rule
Per MPI rank memory allocation (min/avg/max) = 3.132 | 3.134 | 3.137 Mbytes
   Step          Temp          PotEng         KinEng         TotEng         Press         Density    
        72   2             -0.55245186     2.9994         2.4469481      0.36168154     0.18518519   
       100   1.9620522     -0.21829865     2.9424897      2.724191       0.54284273     0.18518519   
       200   2.006113      -0.138808       3.0085677      2.8697597      0.55164699     0.18518519   
       300   2.0282856     -0.11823872     3.0418199      2.9235812      0.54304899     0.18518519   
       400   2.03471       -0.12335763     3.0514547      2.928097       0.51327042     0.18518519   
       500   2.0015865     -0.11060326     3.0017793      2.891176       0.57149629     0.18518519   
       600   2.0122453     -0.12155442     3.0177643      2.8962099      0.50717552     0.18518519   
       700   1.9476507     -0.11896743     2.9208917      2.8019243      0.55661881     0.18518519   
       800   2.0171072     -0.11533328     3.0250556      2.9097223      0.54424307     0.18518519   
       900   2.0026277     -0.11734579     3.0033407      2.885995       0.53805774     0.18518519   
      1000   1.9736899     -0.11563901     2.9599428      2.8443037      0.48917055     0.18518519   
      1100   1.9814439     -0.12137078     2.9715714      2.8502006      0.50963485     0.18518519   
      1200   2.0376011     -0.12026216     3.0557903      2.9355282      0.50551872     0.18518519   
      1300   2.0188007     -0.1185719      3.0275954      2.9090235      0.49766037     0.18518519   
      1400   1.9988768     -0.12037344     2.9977155      2.8773421      0.50150775     0.18518519   
      1500   2.0299988     -0.11595119     3.0443892      2.928438       0.51103089     0.18518519   
      1600   1.9989904     -0.11206711     2.9978859      2.8858188      0.54502576     0.18518519   
      1700   2.0149312     -0.11001134     3.0217923      2.9117809      0.49436341     0.18518519   
      1800   1.9606494     -0.11220158     2.9403859      2.8281843      0.50096078     0.18518519   
      1900   1.9650799     -0.11517754     2.9470303      2.8318528      0.49150157     0.18518519   
      2000   2.0105445     -0.11515906     3.0152135      2.9000545      0.51976337     0.18518519   
      2100   1.9861043     -0.12178074     2.9785607      2.8567799      0.51286403     0.18518519   
      2200   1.9737836     -0.12345901     2.9600832      2.8366242      0.4648924      0.18518519   
      2300   1.9880947     -0.11704083     2.9815456      2.8645047      0.48929491     0.18518519   
      2400   1.9553226     -0.11274922     2.9323973      2.8196481      0.51235206     0.18518519   
      2500   1.9803589     -0.11033485     2.9699442      2.8596094      0.56043929     0.18518519   
      2600   1.9902533     -0.11662368     2.9847829      2.8681592      0.5227674      0.18518519   
      2700   1.9653042     -0.11214559     2.9473667      2.8352211      0.51189027     0.18518519   
      2800   1.9943803     -0.11511806     2.9909722      2.8758541      0.51938946     0.18518519   
      2900   1.9861538     -0.11632425     2.9786349      2.8623106      0.4774292      0.18518519   
      3000   2.0024601     -0.11459462     3.0030894      2.8884948      0.51214304     0.18518519   
      3100   2.0353305     -0.11643122     3.0523852      2.9359539      0.50353031     0.18518519   
      3200   2.0381322     -0.11388935     3.0565869      2.9426975      0.5266357      0.18518519   
      3300   2.0013226     -0.11391671     3.0013835      2.8874668      0.50762173     0.18518519   
      3400   1.9760428     -0.11264017     2.9634714      2.8508312      0.51285841     0.18518519   
      3500   1.9385393     -0.10827684     2.9072274      2.7989506      0.48855173     0.18518519   
      3600   2.0191508     -0.10692508     3.0281205      2.9211954      0.52312444     0.18518519   
      3700   1.9858716     -0.1173795      2.9782116      2.8608321      0.51533024     0.18518519   
      3800   1.9897017     -0.11978611     2.9839556      2.8641695      0.49115275     0.18518519   
      3900   2.0257687     -0.11763958     3.0380454      2.9204058      0.51083489     0.18518519   
      4000   1.9774851     -0.11006042     2.9656345      2.855574       0.49627636     0.18518519   
      4100   1.9580646     -0.12183353     2.9365095      2.8146759      0.48963354     0.18518519   
      4200   1.9632799     -0.11967943     2.9443309      2.8246515      0.49294111     0.18518519   
      4300   1.9881832     -0.12220043     2.9816784      2.8594779      0.4512307      0.18518519   
      4400   1.9923099     -0.1206292      2.9878672      2.867238       0.48891166     0.18518519   
      4500   2.0198157     -0.10872961     3.0291177      2.920388       0.54311666     0.18518519   
      4600   2.0387468     -0.11404182     3.0575086      2.9434668      0.56084674     0.18518519   
      4700   1.9947172     -0.1161763      2.9914774      2.8753011      0.48929837     0.18518519   
      4800   1.9873442     -0.11933274     2.9804201      2.8610874      0.47735186     0.18518519   
      4900   1.9973223     -0.10886344     2.9953843      2.8865209      0.50160603     0.18518519   
      5000   1.9846231     -0.11647174     2.9763393      2.8598675      0.50068459     0.18518519   
      5100   1.9994455     -0.11249385     2.9985685      2.8860746      0.54500242     0.18518519   
      5200   2.0065838     -0.11413168     3.0092737      2.895142       0.50290087     0.18518519   
      5300   2.0159775     -0.11128603     3.0233614      2.9120754      0.53228891     0.18518519   
      5400   2.0303294     -0.12207939     3.044885       2.9228056      0.50381885     0.18518519   
      5500   1.9905002     -0.11540908     2.9851531      2.869744       0.49414851     0.18518519   
      5600   2.0584035     -0.10540268     3.0869878      2.9815851      0.55832616     0.18518519   
      5700   2.0113334     -0.11903311     3.0163966      2.8973635      0.53877527     0.18518519   
      5800   2.0361055     -0.11760445     3.0535474      2.9359429      0.52761803     0.18518519   
      5900   2.0399553     -0.11667344     3.059321       2.9426475      0.50003678     0.18518519   
      6000   2.01081       -0.1016454      3.0156118      2.9139664      0.55684535     0.18518519   
      6100   2.0106523     -0.11264166     3.0153752      2.9027336      0.51364019     0.18518519   
      6200   2.0425179     -0.11129043     3.0631641      2.9518737      0.50776092     0.18518519   
      6300   2.0233598     -0.12415284     3.0344327      2.9102799      0.48332508     0.18518519   
      6400   2.0272225     -0.11643677     3.0402255      2.9237887      0.52744285     0.18518519   
      6500   2.0139688     -0.11376455     3.020349       2.9065844      0.54748958     0.18518519   
      6600   2.0167137     -0.11368805     3.0244655      2.9107775      0.54247739     0.18518519   
      6700   2.024737      -0.10464684     3.0364981      2.9318512      0.5111912      0.18518519   
      6800   2.0062348     -0.12233828     3.0087503      2.886412       0.46956829     0.18518519   
      6900   1.991602      -0.12024026     2.9868056      2.8665653      0.46909307     0.18518519   
      7000   1.9992819     -0.11644485     2.998323       2.8818782      0.49528608     0.18518519   
      7100   2.0008419     -0.11867465     3.0006627      2.881988       0.47328267     0.18518519   
      7200   1.9992264     -0.12641675     2.9982398      2.871823       0.50389788     0.18518519   
      7300   1.9795782     -0.1115097      2.9687734      2.8572637      0.48748726     0.18518519   
      7400   2.0208251     -0.11377139     3.0306315      2.9168601      0.50465969     0.18518519   
      7500   2.011652      -0.10767393     3.0168745      2.9092006      0.52131971     0.18518519   
      7600   2.0405804     -0.11331236     3.0602585      2.9469461      0.5628761      0.18518519   
      7700   1.9749596     -0.10972195     2.9618469      2.852125       0.54161837     0.18518519   
      7800   2.0037728     -0.11979518     3.005058       2.8852628      0.45968911     0.18518519   
      7900   1.9606906     -0.10937783     2.9404476      2.8310698      0.50984395     0.18518519   
      8000   1.9529371     -0.12172626     2.9288197      2.8070934      0.44740272     0.18518519   
      8100   2.004863      -0.11426522     3.0066931      2.8924279      0.5379369      0.18518519   
      8200   1.9811944     -0.1206717      2.9711973      2.8505256      0.49418053     0.18518519   
      8300   1.9911827     -0.12176267     2.9861768      2.8644141      0.44079755     0.18518519   
      8400   1.9508682     -0.11829683     2.925717       2.8074201      0.47867724     0.18518519   
      8500   1.9801297     -0.10940153     2.9696005      2.8601989      0.50217794     0.18518519   
      8600   1.9955661     -0.11151627     2.9927504      2.8812342      0.50982815     0.18518519   
      8700   1.9820386     -0.11063941     2.9724633      2.8618239      0.51246888     0.18518519   
      8800   2.017299      -0.12024268     3.0253433      2.9051006      0.47569397     0.18518519   
      8900   2.0138157     -0.12543996     3.0201194      2.8946795      0.47748017     0.18518519   
      9000   1.9960722     -0.11550424     2.9935094      2.8780052      0.53419987     0.18518519   
      9100   1.9811784     -0.10823243     2.9711733      2.8629409      0.58176501     0.18518519   
      9200   2.0098131     -0.11792881     3.0141167      2.8961879      0.48903639     0.18518519   
      9300   2.01745       -0.11737071     3.0255697      2.908199       0.52357898     0.18518519   
      9400   1.9912937     -0.12651697     2.9863432      2.8598262      0.49391859     0.18518519   
      9500   2.0063356     -0.11852221     3.0089015      2.8903793      0.50334637     0.18518519   
      9600   2.0120854     -0.11133551     3.0175244      2.9061889      0.51383648     0.18518519   
      9700   1.9711301     -0.11979664     2.9561039      2.8363072      0.48138281     0.18518519   
      9800   2.013795      -0.10955674     3.0200883      2.9105316      0.53954388     0.18518519   
      9900   2.0410074     -0.10670011     3.0608988      2.9541987      0.53641968     0.18518519   
     10000   1.999455      -0.11679731     2.9985827      2.8817854      0.48766181     0.18518519   
     10100   2.0163087     -0.11529815     3.0238582      2.90856        0.50206971     0.18518519   
     10200   2.0553251     -0.11102731     3.0823711      2.9713437      0.54338386     0.18518519   
     10300   2.0137191     -0.1165693      3.0199745      2.9034052      0.50670923     0.18518519   
     10400   1.98519       -0.11657722     2.9771895      2.8606123      0.49385514     0.18518519   
     10500   2.0301464     -0.12658904     3.0446105      2.9180215      0.46435439     0.18518519   
     10600   1.9825289     -0.11239641     2.9731986      2.8608021      0.52608315     0.18518519   
     10700   1.9794412     -0.11729514     2.968568       2.8512729      0.5266164      0.18518519   
     10800   1.9978183     -0.12200809     2.9961281      2.87412        0.51671625     0.18518519   
     10900   1.9809044     -0.11919734     2.9707623      2.8515649      0.47706122     0.18518519   
     11000   1.9895735     -0.11162867     2.9837634      2.8721348      0.53837752     0.18518519   
     11100   2.0291171     -0.11353492     3.0430669      2.929532       0.48720613     0.18518519   
     11200   2.0000117     -0.11310962     2.9994176      2.8863079      0.53091922     0.18518519   
     11300   2.0036397     -0.11340442     3.0048584      2.891454       0.50150386     0.18518519   
     11400   2.0128777     -0.11926772     3.0187127      2.899445       0.5177188      0.18518519   
     11500   2.0019763     -0.11684974     3.0023639      2.8855141      0.52752734     0.18518519   
     11600   2.0039838     -0.12087622     3.0053745      2.8844983      0.47757224     0.18518519   
     11700   2.0049016     -0.11924018     3.006751       2.8875108      0.47826542     0.18518519   
     11800   2.0294607     -0.11909185     3.0435822      2.9244903      0.47097121     0.18518519   
     11900   2.029296      -0.11892116     3.0433353      2.9244141      0.51838541     0.18518519   
     12000   2.0243115     -0.12016545     3.03586        2.9156945      0.54341015     0.18518519   
     12100   1.9486901     -0.12400584     2.9224506      2.7984447      0.51358331     0.18518519   
     12200   2.0100382     -0.11461741     3.0144543      2.8998369      0.51867351     0.18518519   
     12300   2.01187       -0.11850196     3.0172014      2.8986994      0.52160045     0.18518519   
     12400   2.0435244     -0.11641396     3.0646736      2.9482596      0.56094653     0.18518519   
     12500   1.9763931     -0.12688651     2.9639967      2.8371102      0.48487699     0.18518519   
     12600   1.9965873     -0.12917298     2.9942819      2.865109       0.48463364     0.18518519   
     12700   1.9913258     -0.11237672     2.9863913      2.8740145      0.49088356     0.18518519   
     12800   1.9765346     -0.11359281     2.9642089      2.8506161      0.49714885     0.18518519   
     12900   2.0043909     -0.11033865     3.005985       2.8956464      0.55047027     0.18518519   
     13000   2.0028396     -0.12405686     3.0036586      2.8796017      0.4884306      0.18518519   
     13100   1.9709683     -0.11811194     2.9558611      2.8377492      0.48782544     0.18518519   
     13200   1.9644758     -0.12029353     2.9461244      2.8258308      0.47842419     0.18518519   
     13300   1.997116      -0.10815787     2.9950749      2.886917       0.54894622     0.18518519   
     13400   2.0108419     -0.12705871     3.0156597      2.8886009      0.54465743     0.18518519   
     13500   1.9931561     -0.11964993     2.9891361      2.8694862      0.51784222     0.18518519   
     13600   2.055889      -0.10733891     3.0832167      2.9758778      0.5278033      0.18518519   
     13700   2.0357719     -0.11272528     3.0530471      2.9403218      0.54688989     0.18518519   
     13800   2.0132604     -0.10891425     3.0192866      2.9103723      0.53202534     0.18518519   
     13900   1.9850201     -0.1172455      2.9769346      2.8596891      0.53899333     0.18518519   
     14000   2.0368208     -0.1223055      3.0546202      2.9323147      0.47590348     0.18518519   
     14100   1.9893405     -0.11189189     2.9834139      2.871522       0.50442433     0.18518519   
     14200   2.0341923     -0.11591378     3.0506781      2.9347644      0.49330423     0.18518519   
     14300   1.9598278     -0.10917329     2.9391538      2.8299805      0.48894975     0.18518519   
     14400   2.0164404     -0.10880676     3.0240557      2.915249       0.55471673     0.18518519   
     14500   2.0104153     -0.11230318     3.0150198      2.9027166      0.50386015     0.18518519   
     14600   1.9982262     -0.11818533     2.9967399      2.8785545      0.53237216     0.18518519   
     14700   1.9911248     -0.11298032     2.9860899      2.8731096      0.52338429     0.18518519   
     14800   2.0346205     -0.12004965     3.0513204      2.9312708      0.48930276     0.18518519   
     14900   2.0033316     -0.116407       3.0043964      2.8879894      0.46420844     0.18518519   
     15000   2.0055956     -0.1095679      3.0077917      2.8982238      0.51239903     0.18518519   
     15100   2.0214826     -0.11344743     3.0316175      2.9181701      0.55374571     0.18518519   
     15200   1.939751      -0.11158671     2.9090446      2.7974579      0.51665433     0.18518519   
     15300   2.0148534     -0.11242207     3.0216757      2.9092536      0.50272804     0.18518519   
     15400   1.9594885     -0.11357708     2.9386449      2.8250679      0.5272479      0.18518519   
     15500   2.0143827     -0.11691225     3.0209697      2.9040575      0.49197898     0.18518519   
     15600   1.9706145     -0.10885678     2.9553306      2.8464738      0.52516388     0.18518519   
     15700   2.0204133     -0.12166572     3.0300138      2.9083481      0.52225188     0.18518519   
     15800   1.9715638     -0.12525528     2.9567543      2.831499       0.48192352     0.18518519   
     15900   2.0303771     -0.11656836     3.0449565      2.9283882      0.51860312     0.18518519   
     16000   1.9646043     -0.11765606     2.9463171      2.8286611      0.52673258     0.18518519   
     16100   2.0378918     -0.11528945     3.0562264      2.9409369      0.51342972     0.18518519   
     16200   1.9971216     -0.11184357     2.9950833      2.8832398      0.54010003     0.18518519   
     16300   2.00066       -0.1077048      3.0003899      2.8926851      0.5556687      0.18518519   
     16400   1.9813978     -0.11056488     2.9715022      2.8609374      0.53847871     0.18518519   
     16500   2.0105254     -0.11480523     3.0151849      2.9003797      0.51707854     0.18518519   
     16600   2.0343075     -0.12135995     3.050851       2.929491       0.53366135     0.18518519   
     16700   2.008998      -0.12957499     3.0128943      2.8833193      0.50339243     0.18518519   
     16800   1.9948449     -0.11766289     2.9916688      2.8740059      0.49005483     0.18518519   
     16900   2.0334468     -0.11676799     3.0495602      2.9327922      0.49189836     0.18518519   
     17000   2.022876      -0.11528085     3.0337072      2.9184263      0.55548882     0.18518519   
     17100   2.0221276     -0.117974       3.0325848      2.9146108      0.48984488     0.18518519   
     17200   1.993913      -0.11719308     2.9902713      2.8730782      0.51496931     0.18518519   
     17300   2.0080956     -0.11772596     3.011541       2.893815       0.51718209     0.18518519   
     17400   1.9802946     -0.11436119     2.9698478      2.8554866      0.48796742     0.18518519   
     17500   2.0354124     -0.11754694     3.0525079      2.934961       0.47601679     0.18518519   
     17600   2.0209562     -0.12043692     3.030828       2.9103911      0.51094399     0.18518519   
     17700   1.9753873     -0.12427513     2.9624884      2.8382132      0.4902958      0.18518519   
     17800   1.9877444     -0.10701993     2.9810203      2.8740004      0.5124337      0.18518519   
     17900   2.0205548     -0.11439063     3.0302261      2.9158354      0.51052299     0.18518519   
     18000   1.9910879     -0.12099143     2.9860345      2.8650431      0.49980107     0.18518519   
     18100   2.0493983     -0.11764432     3.0734827      2.9558383      0.54286041     0.18518519   
     18200   1.9978246     -0.12005436     2.9961376      2.8760832      0.49798772     0.18518519   
     18300   2.0056174     -0.12067683     3.0078244      2.8871475      0.48179399     0.18518519   
     18400   1.9786649     -0.10981065     2.9674038      2.8575932      0.54233199     0.18518519   
     18500   1.9908308     -0.11547628     2.9856489      2.8701726      0.50787471     0.18518519   
     18600   1.9898424     -0.11576217     2.9841666      2.8684044      0.50696011     0.18518519   
     18700   1.9499014     -0.1082486      2.9242672      2.8160186      0.53512259     0.18518519   
     18800   2.0075364     -0.12374008     3.0107024      2.8869623      0.51202979     0.18518519   
     18900   2.04668       -0.11613324     3.069406       2.9532728      0.51780892     0.18518519   
     19000   1.9674784     -0.12373071     2.9506274      2.8268967      0.50118614     0.18518519   
     19100   1.982361      -0.12084691     2.9729467      2.8520998      0.50945178     0.18518519   
     19200   1.997584      -0.11492509     2.9957768      2.8808517      0.54762306     0.18518519   
     19300   2.0015329     -0.11081942     3.0016989      2.8908794      0.50453606     0.18518519   
     19400   1.9811303     -0.11530806     2.9711012      2.8557931      0.547006       0.18518519   
     19500   2.028577      -0.11497017     3.0422569      2.9272867      0.48069078     0.18518519   
     19600   1.988195      -0.11426732     2.981696       2.8674287      0.51153057     0.18518519   
     19700   2.0212106     -0.11899893     3.0312095      2.9122106      0.50386105     0.18518519   
     19800   2.0153212     -0.1161971      3.0223772      2.9061801      0.53813487     0.18518519   
     19900   2.0433504     -0.12454287     3.0644126      2.9398698      0.51279793     0.18518519   
     20000   1.9948658     -0.12576786     2.9917002      2.8659323      0.49881812     0.18518519   
     20100   2.0292161     -0.11221872     3.0432154      2.9309967      0.51628491     0.18518519   
     20200   1.9753357     -0.11743507     2.962411       2.8449759      0.53025621     0.18518519   
     20300   2.0462348     -0.11401696     3.0687383      2.9547214      0.48050626     0.18518519   
     20400   2.0436449     -0.11997599     3.0648543      2.9448783      0.49144499     0.18518519   
     20500   2.024188      -0.11190588     3.0356748      2.9237689      0.54141349     0.18518519   
     20600   2.0517398     -0.1187515      3.0769942      2.9582427      0.52057635     0.18518519   
     20700   2.0267027     -0.12287184     3.0394461      2.9165742      0.50902583     0.18518519   
     20800   2.0339724     -0.11666668     3.0503485      2.9336818      0.51766839     0.18518519   
     20900   1.9930546     -0.1203555      2.988984       2.8686285      0.47123685     0.18518519   
     21000   2.024969      -0.12041416     3.036846       2.9164319      0.52029622     0.18518519   
     21100   2.0067382     -0.1301081      3.0095053      2.8793972      0.51070149     0.18518519   
     21200   2.0148324     -0.11911132     3.0216441      2.9025328      0.48896962     0.18518519   
     21300   2.0082996     -0.11417867     3.0118469      2.8976683      0.53856344     0.18518519   
     21400   1.939801      -0.11551377     2.9091196      2.7936058      0.54518518     0.18518519   
     21500   1.9821157     -0.1239797      2.9725789      2.8485992      0.47258638     0.18518519   
     21600   1.9573086     -0.11820419     2.9353757      2.8171715      0.51128199     0.18518519   
     21700   1.9992691     -0.12305816     2.9983039      2.8752457      0.51505075     0.18518519   
     21800   2.026468      -0.12131705     3.0390941      2.917777       0.49502049     0.18518519   
     21900   1.9825684     -0.12027908     2.9732578      2.8529787      0.48971259     0.18518519   
     22000   1.9961663     -0.1116407      2.9936506      2.8820099      0.54113676     0.18518519   
     22100   1.9993375     -0.11294361     2.9984065      2.8854629      0.48286851     0.18518519   
     22200   2.0120785     -0.10833119     3.0175141      2.9091829      0.53092938     0.18518519   
     22300   1.9935153     -0.11563768     2.9896749      2.8740372      0.50400595     0.18518519   
     22400   1.9944296     -0.10835825     2.9910461      2.8826879      0.53654025     0.18518519   
     22500   1.9976423     -0.11804295     2.9958642      2.8778212      0.49795945     0.18518519   
     22600   2.0426057     -0.11169101     3.0632957      2.9516047      0.52675487     0.18518519   
     22700   2.0029918     -0.11322109     3.0038868      2.8906657      0.49414024     0.18518519   
     22800   1.9809298     -0.1160465      2.9708004      2.8547539      0.48676904     0.18518519   
     22900   2.0180405     -0.10703783     3.0264554      2.9194175      0.53236704     0.18518519   
     23000   1.9658358     -0.11330622     2.948164       2.8348577      0.48527236     0.18518519   
     23100   1.9723801     -0.11549885     2.9579784      2.8424796      0.47321029     0.18518519   
     23200   2.0089178     -0.1198376      3.0127741      2.8929365      0.50998093     0.18518519   
     23300   1.9929611     -0.11621846     2.9888437      2.8726253      0.48997159     0.18518519   
     23400   1.9890218     -0.11419396     2.9829361      2.8687421      0.53887848     0.18518519   
     23500   2.0111086     -0.1190815      3.0160595      2.896978       0.5000526      0.18518519   
     23600   1.9788037     -0.11746809     2.9676119      2.8501438      0.51500477     0.18518519   
     23700   1.9540711     -0.12212061     2.9305205      2.8083999      0.45836936     0.18518519   
     23800   2.0087339     -0.11516274     3.0124983      2.8973355      0.51996101     0.18518519   
     23900   1.978997      -0.1097608      2.9679018      2.858141       0.52373932     0.18518519   
     24000   2.0088537     -0.11038042     3.0126779      2.9022975      0.51395096     0.18518519   
     24100   1.9935424     -0.11140836     2.9897156      2.8783072      0.51338075     0.18518519   
     24200   2.0131342     -0.11927345     3.0190974      2.899824       0.48516735     0.18518519   
     24300   2.0031295     -0.12651515     3.0040933      2.8775781      0.4884198      0.18518519   
     24400   1.9824357     -0.11958986     2.9730589      2.853469       0.49986574     0.18518519   
     24500   2.0168877     -0.1152836      3.0247264      2.9094428      0.5415888      0.18518519   
     24600   1.9902737     -0.11561787     2.9848135      2.8691956      0.51449924     0.18518519   
     24700   2.0041287     -0.10658938     3.0055919      2.8990025      0.56199621     0.18518519   
     24800   2.005957      -0.11848787     3.0083337      2.8898459      0.52723484     0.18518519   
     24900   1.9639826     -0.11997053     2.9453846      2.8254141      0.52199576     0.18518519   
     25000   2.0058275     -0.11902554     3.0081394      2.8891139      0.50211642     0.18518519   
     25100   1.9929582     -0.11260544     2.9888395      2.876234       0.52179867     0.18518519   
     25200   1.9844304     -0.11783055     2.9760503      2.8582198      0.52774617     0.18518519   
     25300   2.0343266     -0.12485781     3.0508796      2.9260218      0.50199671     0.18518519   
     25400   1.9791405     -0.11398375     2.968117       2.8541332      0.51578647     0.18518519   
     25500   2.0361982     -0.12243515     3.0536864      2.9312513      0.50857025     0.18518519   
     25600   2.0566406     -0.10740918     3.0843438      2.9769347      0.57424808     0.18518519   
     25700   2.0042086     -0.11970281     3.0057116      2.8860088      0.51471652     0.18518519   
     25800   2.0099042     -0.11772782     3.0142533      2.8965255      0.51651289     0.18518519   
     25900   2.0455637     -0.1161321      3.0677319      2.9515998      0.52474548     0.18518519   
     26000   2.005441      -0.10399428     3.0075599      2.9035656      0.56768009     0.18518519   
     26100   2.0085627     -0.1199399      3.0122415      2.8923016      0.49241802     0.18518519   
     26200   2.0130547     -0.11285028     3.0189781      2.9061279      0.54768775     0.18518519   
     26300   2.0465587     -0.12287082     3.0692241      2.9463533      0.51033931     0.18518519   
     26400   1.988036      -0.11428209     2.9814576      2.8671756      0.53224899     0.18518519   
     26500   1.9963764     -0.11191173     2.9939657      2.882054       0.52880015     0.18518519   
     26600   1.9894504     -0.11792438     2.9835787      2.8656544      0.50476884     0.18518519   
     26700   1.9704289     -0.12256965     2.9550523      2.8324826      0.50566583     0.18518519   
     26800   2.0159043     -0.11877946     3.0232517      2.9044722      0.51344892     0.18518519   
     26900   2.0164606     -0.11650853     3.0240859      2.9075774      0.51072302     0.18518519   
     27000   1.986595      -0.12270357     2.9792965      2.8565929      0.4586274      0.18518519   
     27100   2.0630403     -0.11884635     3.0939415      2.9750951      0.50375563     0.18518519   
     27200   2.0167637     -0.11349013     3.0245405      2.9110504      0.51819973     0.18518519   
     27300   2.0134301     -0.10767878     3.0195412      2.9118624      0.55594227     0.18518519   
     27400   2.0018628     -0.11667193     3.0021936      2.8855216      0.52554082     0.18518519   
     27500   1.9781999     -0.12064933     2.9667064      2.8460571      0.49409874     0.18518519   
     27600   1.9822327     -0.12155004     2.9727544      2.8512043      0.48958639     0.18518519   
     27700   2.0187399     -0.11425935     3.0275042      2.9132449      0.53895697     0.18518519   
     27800   1.9991173     -0.1205862      2.9980762      2.87749        0.49837308     0.18518519   
     27900   1.9907976     -0.11527346     2.9855991      2.8703257      0.52311186     0.18518519   
     28000   1.9983702     -0.11470571     2.9969558      2.8822501      0.50025638     0.18518519   
     28100   1.969688      -0.11493289     2.9539411      2.8390082      0.4947759      0.18518519   
     28200   1.935988      -0.108947       2.9034013      2.7944543      0.53712489     0.18518519   
     28300   2.0021153     -0.10855312     3.0025723      2.8940192      0.52300422     0.18518519   
     28400   2.03446       -0.1113484      3.0510796      2.9397312      0.5092908      0.18518519   
     28500   2.0018788     -0.11181182     3.0022176      2.8904058      0.56506643     0.18518519   
     28600   1.9973762     -0.12038641     2.9954651      2.8750787      0.48949842     0.18518519   
     28700   1.9904034     -0.1074853      2.985008       2.8775227      0.51850884     0.18518519   
     28800   2.0030721     -0.1167493      3.0040073      2.887258       0.53049785     0.18518519   
     28900   1.9936359     -0.12275121     2.9898558      2.8671045      0.53269808     0.18518519   
     29000   1.9824971     -0.11931112     2.9731509      2.8538398      0.52643638     0.18518519   
     29100   2.0205614     -0.10804011     3.0302359      2.9221958      0.53706299     0.18518519   
     29200   2.0066432     -0.12507354     3.0093628      2.8842892      0.44779554     0.18518519   
     29300   1.9838773     -0.10648565     2.9752208      2.8687351      0.54887285     0.18518519   
     29400   1.9725738     -0.11406614     2.9582689      2.8442027      0.47811506     0.18518519   
     29500   2.0181485     -0.11885423     3.0266174      2.9077631      0.47414659     0.18518519   
     29600   2.0004112     -0.11976151     3.0000167      2.8802552      0.50535719     0.18518519   
     29700   2.0350903     -0.11374767     3.0520249      2.9382772      0.50431576     0.18518519   
     29800   2.0067292     -0.12278787     3.0094917      2.8867038      0.5129842      0.18518519   
     29900   2.0131928     -0.12221232     3.0191852      2.8969729      0.49070051     0.18518519   
     30000   1.9958424     -0.11764597     2.9931649      2.8755189      0.51342965     0.18518519   
     30100   2.0119262     -0.12059654     3.0172858      2.8966892      0.51647284     0.18518519   
     30200   2.0171248     -0.120593       3.025082       2.904489       0.50408355     0.18518519   
     30300   1.9711404     -0.12080092     2.9561192      2.8353183      0.52620123     0.18518519   
     30400   1.9933926     -0.11662886     2.9894909      2.872862       0.53175705     0.18518519   
     30500   2.0207475     -0.12044849     3.030515       2.9100665      0.49959089     0.18518519   
     30600   2.0194655     -0.11968907     3.0285924      2.9089034      0.5108506      0.18518519   
     30700   1.9637876     -0.10879765     2.9450922      2.8362946      0.48823125     0.18518519   
     30800   1.9926021     -0.1057452      2.9883053      2.8825601      0.55485434     0.18518519   
     30900   1.9921963     -0.11026005     2.9876967      2.8774367      0.53517461     0.18518519   
     31000   1.9986234     -0.11510875     2.9973355      2.8822267      0.49715874     0.18518519   
     31100   1.9970485     -0.11815441     2.9949737      2.8768193      0.48031923     0.18518519   
     31200   1.9630997     -0.11932642     2.9440606      2.8247341      0.50030875     0.18518519   
     31300   2.0231341     -0.11384416     3.0340943      2.9202501      0.50939219     0.18518519   
     31400   2.0125599     -0.11823543     3.018236       2.9000006      0.53047854     0.18518519   
     31500   1.9991359     -0.11854298     2.9981041      2.8795611      0.4933891      0.18518519   
     31600   2.027731      -0.12449063     3.0409882      2.9164975      0.47722278     0.18518519   
     31700   2.0002764     -0.11829092     2.9998145      2.8815235      0.48683649     0.18518519   
     31800   1.980541      -0.1131439      2.9702174      2.8570735      0.5200778      0.18518519   
     31900   1.9883949     -0.12641697     2.9819959      2.8555789      0.46495125     0.18518519   
     32000   2.0098791     -0.12099527     3.0142157      2.8932204      0.56072681     0.18518519   
     32100   1.9984158     -0.11727301     2.9970242      2.8797512      0.5367124      0.18518519   
     32200   2.0020588     -0.11554081     3.0024877      2.8869468      0.47943262     0.18518519   
     32300   2.0074086     -0.10070589     3.0105107      2.9098048      0.54697423     0.18518519   
     32400   2.0031354     -0.11427343     3.0041022      2.8898288      0.48627589     0.18518519   
     32500   2.0325734     -0.11235007     3.0482504      2.9359003      0.5484419      0.18518519   
     32600   2.0088392     -0.11836664     3.0126562      2.8942896      0.53989064     0.18518519   
     32700   2.0013112     -0.11121966     3.0013664      2.8901468      0.50736049     0.18518519   
     32800   2.0114554     -0.11284735     3.0165796      2.9037323      0.52814805     0.18518519   
     32900   1.9877502     -0.12542872     2.981029       2.8556003      0.48322624     0.18518519   
     33000   2.0464092     -0.11419442     3.0689998      2.9548054      0.57128104     0.18518519   
     33100   2.0390265     -0.11107833     3.0579281      2.9468498      0.52490451     0.18518519   
     33200   1.9856729     -0.10771945     2.9779137      2.8701942      0.52773672     0.18518519   
     33300   1.9711467     -0.11006631     2.9561287      2.8460624      0.53935956     0.18518519   
     33400   2.0118856     -0.1121998      3.0172248      2.905025       0.519807       0.18518519   
     33500   2.049502      -0.12179823     3.0736382      2.95184        0.47139291     0.18518519   
     33600   1.9817869     -0.12428142     2.9720858      2.8478044      0.47644682     0.18518519   
     33700   2.019322      -0.11942373     3.0283772      2.9089535      0.51175361     0.18518519   
     33800   1.9949269     -0.11478683     2.9917919      2.877005       0.5262019      0.18518519   
     33900   2.0204294     -0.11697145     3.030038       2.9130666      0.53424622     0.18518519   
     34000   1.9950381     -0.11354989     2.9919586      2.8784087      0.53599933     0.18518519   
     34100   1.9985742     -0.11868651     2.9972617      2.8785752      0.49866959     0.18518519   
     34200   2.0018423     -0.12262792     3.0021628      2.8795349      0.53298825     0.18518519   
     34300   2.0039336     -0.11546406     3.0052992      2.8898352      0.49276045     0.18518519   
     34400   1.9770076     -0.1201465      2.9649183      2.8447718      0.47403186     0.18518519   
     34500   2.0103209     -0.1139221      3.0148782      2.9009561      0.54348398     0.18518519   
     34600   2.0118294     -0.11853248     3.0171405      2.898608       0.48391369     0.18518519   
     34700   2.0096686     -0.12376849     3.0139001      2.8901316      0.51824511     0.18518519   
     34800   1.9526797     -0.11747411     2.9284338      2.8109597      0.48536722     0.18518519   
     34900   1.9670839     -0.11727393     2.9500358      2.8327618      0.47341109     0.18518519   
     35000   1.9704228     -0.1133364      2.9550431      2.8417067      0.5421985      0.18518519   
     35100   2.0198451     -0.1201896      3.0291617      2.9089721      0.52949973     0.18518519   
     35200   1.9876673     -0.12249179     2.9809047      2.8584129      0.5144596      0.18518519   
     35300   1.9877671     -0.11457524     2.9810544      2.8664791      0.51457927     0.18518519   
     35400   2.0436906     -0.11073942     3.0649228      2.9541834      0.56841148     0.18518519   
     35500   2.0220849     -0.1171361      3.0325207      2.9153846      0.5108048      0.18518519   
     35600   2.034682      -0.1277358      3.0514126      2.9236768      0.49164905     0.18518519   
     35700   1.9803122     -0.10815152     2.9698742      2.8617227      0.51720216     0.18518519   
     35800   1.9978664     -0.11835018     2.9962002      2.87785        0.50040067     0.18518519   
     35900   1.9729111     -0.12490316     2.9587747      2.8338716      0.49215459     0.18518519   
     36000   2.0041939     -0.12248882     3.0056895      2.8832007      0.49952077     0.18518519   
     36100   2.0426437     -0.12011448     3.0633528      2.9432383      0.47514173     0.18518519   
     36200   1.9582078     -0.10426198     2.9367242      2.8324622      0.56356677     0.18518519   
     36300   1.9994352     -0.11513011     2.9985529      2.8834228      0.49884449     0.18518519   
     36400   2.0078518     -0.1214792      3.0111754      2.8896962      0.5116688      0.18518519   
     36500   1.9966787     -0.10439128     2.994419       2.8900277      0.53980052     0.18518519   
     36600   2.0271498     -0.11273312     3.0401165      2.9273834      0.530122       0.18518519   
     36700   2.0106991     -0.1108859      3.0154454      2.9045595      0.53034335     0.18518519   
     36800   1.9896113     -0.11294664     2.9838201      2.8708734      0.51356972     0.18518519   
     36900   1.9952228     -0.12051073     2.9922356      2.8717249      0.48494331     0.18518519   
     37000   1.9765739     -0.11907068     2.9642678      2.8451972      0.50899268     0.18518519   
     37100   2.0399836     -0.11364968     3.0593634      2.9457138      0.53284933     0.18518519   
     37200   2.0162515     -0.1163834      3.0237724      2.907389       0.49446218     0.18518519   
     37300   2.0493822     -0.11454116     3.0734584      2.9589173      0.53456426     0.18518519   
     37400   1.9869067     -0.11654575     2.979764       2.8632182      0.49448571     0.18518519   
     37500   2.0159495     -0.11053052     3.0233195      2.912789       0.54118975     0.18518519   
     37600   1.9754905     -0.12509782     2.962643       2.8375452      0.46143609     0.18518519   
     37700   2.0229675     -0.11305194     3.0338443      2.9207924      0.54243119     0.18518519   
     37800   1.9746544     -0.11822327     2.9613892      2.843166       0.48492536     0.18518519   
     37900   1.9730836     -0.1192755      2.9590335      2.8397581      0.52341491     0.18518519   
     38000   1.9795106     -0.1152687      2.968672       2.8534033      0.49327625     0.18518519   
     38100   1.9960821     -0.11274061     2.9935243      2.8807837      0.51437592     0.18518519   
     38200   2.0177957     -0.1157483      3.0260881      2.9103398      0.48843765     0.18518519   
     38300   1.9842418     -0.11425056     2.9757674      2.8615168      0.5137631      0.18518519   
     38400   2.0031771     -0.11595741     3.0041648      2.8882074      0.49715324     0.18518519   
     38500   2.0029991     -0.11892209     3.0038977      2.8849756      0.49710407     0.18518519   
     38600   1.9799555     -0.11222885     2.9693393      2.8571104      0.52953044     0.18518519   
     38700   1.99338       -0.11993809     2.989472       2.869534       0.47788183     0.18518519   
     38800   2.0180042     -0.11078299     3.0264009      2.915618       0.50472865     0.18518519   
     38900   1.9867986     -0.11012581     2.9796018      2.869476       0.5351482      0.18518519   
     39000   2.0031583     -0.11718951     3.0041365      2.886947       0.49145758     0.18518519   
     39100   2.0032805     -0.10894463     3.0043198      2.8953752      0.55873498     0.18518519   
     39200   2.0170647     -0.11235255     3.024992       2.9126394      0.54521959     0.18518519   
     39300   1.9544455     -0.12092616     2.9310819      2.8101557      0.50152132     0.18518519   
     39400   1.9882753     -0.12346364     2.9818164      2.8583528      0.4809279      0.18518519   
     39500   2.0201654     -0.1125047      3.0296421      2.9171374      0.52695362     0.18518519   
     39600   2.0022358     -0.11838185     3.002753       2.8843711      0.51823474     0.18518519   
     39700   1.9961762     -0.11896796     2.9936654      2.8746975      0.52416714     0.18518519   
     39800   1.9978714     -0.10952838     2.9962078      2.8866794      0.48400842     0.18518519   
     39900   2.0575511     -0.11672066     3.0857093      2.9689887      0.51219952     0.18518519   
     40000   2.0011652     -0.12544809     3.0011474      2.8756994      0.50771342     0.18518519   
     40100   2.0028181     -0.12238058     3.0036263      2.8812457      0.47092224     0.18518519   
     40200   1.995285      -0.12219762     2.9923289      2.8701313      0.54188757     0.18518519   
     40300   2.0062604     -0.11966364     3.0087888      2.8891251      0.47904185     0.18518519   
     40400   2.0022769     -0.10785721     3.0028147      2.8949575      0.53597357     0.18518519   
     40500   1.9751317     -0.11186927     2.962105       2.8502357      0.50395022     0.18518519   
     40600   1.9979712     -0.11207264     2.9963575      2.8842848      0.50298552     0.18518519   
     40700   2.0083628     -0.11429785     3.0119417      2.8976438      0.51822369     0.18518519   
     40800   1.9950191     -0.12259666     2.9919301      2.8693335      0.49292022     0.18518519   
     40900   2.0264199     -0.11111982     3.0390219      2.927902       0.49044909     0.18518519   
     41000   1.9741609     -0.1118289      2.9606491      2.8488202      0.52689089     0.18518519   
     41100   1.9722745     -0.1118462      2.9578201      2.8459739      0.51324804     0.18518519   
     41200   2.0280858     -0.11569096     3.0415202      2.9258293      0.51176329     0.18518519   
     41300   1.9963098     -0.11407015     2.9938658      2.8797957      0.49881994     0.18518519   
     41400   2.0252981     -0.12064163     3.0373396      2.916698       0.48086275     0.18518519   
     41500   2.005979      -0.12206872     3.0083667      2.886298       0.49373531     0.18518519   
     41600   2.027772      -0.11898978     3.0410497      2.92206        0.55783832     0.18518519   
     41700   2.0244432     -0.10797466     3.0360575      2.9280828      0.55978061     0.18518519   
     41800   2.008089      -0.11579853     3.0115311      2.8957326      0.5070358      0.18518519   
     41900   1.9602992     -0.12050428     2.9398607      2.8193564      0.47541961     0.18518519   
     42000   1.9835404     -0.11657782     2.9747155      2.8581377      0.50165614     0.18518519   
     42100   2.0153597     -0.11880071     3.022435       2.9036343      0.50522377     0.18518519   
     42200   1.9916474     -0.12241543     2.9868736      2.8644581      0.44300412     0.18518519   
     42300   2.0150984     -0.11366861     3.0220431      2.9083744      0.56151343     0.18518519   
     42400   2.013725      -0.10972831     3.0199834      2.9102551      0.55055238     0.18518519   
     42500   1.9966986     -0.12543915     2.9944488      2.8690097      0.55491631     0.18518519   
     42600   2.0275234     -0.1244596      3.0406768      2.9162172      0.50489272     0.18518519   
     42700   1.9814312     -0.12165316     2.9715523      2.8498991      0.46377273     0.18518519   
     42800   2.006082      -0.12664365     3.0085212      2.8818775      0.49541761     0.18518519   
     42900   1.9873578     -0.11730035     2.9804406      2.8631402      0.48629069     0.18518519   
     43000   2.0163261     -0.11812688     3.0238843      2.9057574      0.47892517     0.18518519   
     43100   1.9858217     -0.12228929     2.9781368      2.8558475      0.50363822     0.18518519   
     43200   2.0307767     -0.12434937     3.0455558      2.9212065      0.50565993     0.18518519   
     43300   1.9826757     -0.11183275     2.9734187      2.861586       0.50083068     0.18518519   
     43400   2.0378218     -0.11823241     3.0561214      2.937889       0.52822712     0.18518519   
     43500   1.9780366     -0.11842892     2.9664615      2.8480326      0.47763494     0.18518519   
     43600   2.023397      -0.11045531     3.0344885      2.9240332      0.54441146     0.18518519   
     43700   2.0342676     -0.10771747     3.0507912      2.9430737      0.58204855     0.18518519   
     43800   2.0281529     -0.12415144     3.041621       2.9174695      0.48604874     0.18518519   
     43900   1.9707193     -0.11908812     2.9554877      2.8363996      0.49196226     0.18518519   
     44000   1.9585462     -0.11433362     2.9372318      2.8228982      0.50392339     0.18518519   
     44100   2.0010482     -0.12155674     3.000972       2.8794152      0.47310461     0.18518519   
     44200   1.9958912     -0.10630568     2.993238       2.8869323      0.54977652     0.18518519   
     44300   2.0078513     -0.12306815     3.0111745      2.8881064      0.51654531     0.18518519   
     44400   1.9854022     -0.11035322     2.9775077      2.8671545      0.53258577     0.18518519   
     44500   1.9915608     -0.11314127     2.9867437      2.8736025      0.52406191     0.18518519   
     44600   2.0240198     -0.11668964     3.0354225      2.9187329      0.50333385     0.18518519   
     44700   1.9875776     -0.11054023     2.9807701      2.8702299      0.50513023     0.18518519   
     44800   2.0097092     -0.11926462     3.0139608      2.8946962      0.49868585     0.18518519   
     44900   2.0039424     -0.11547284     3.0053125      2.8898396      0.52027026     0.18518519   
     45000   1.9977804     -0.11155071     2.9960713      2.8845206      0.50631525     0.18518519   
     45100   2.0012476     -0.12066708     3.001271       2.880604       0.5027841      0.18518519   
     45200   2.0209478     -0.12005966     3.0308155      2.9107558      0.48808393     0.18518519   
     45300   1.9993526     -0.11033374     2.9984291      2.8880954      0.55272248     0.18518519   
     45400   1.9822731     -0.11648768     2.972815       2.8563274      0.51448247     0.18518519   
     45500   1.9945684     -0.11875435     2.9912542      2.8724998      0.46317984     0.18518519   
     45600   1.9929052     -0.12269506     2.98876        2.8660649      0.48208421     0.18518519   
     45700   2.0028917     -0.1082943      3.0037367      2.8954424      0.55585819     0.18518519   
     45800   1.9981668     -0.11148498     2.9966508      2.8851658      0.52276739     0.18518519   
     45900   1.9919001     -0.11769237     2.9872525      2.8695602      0.54162669     0.18518519   
     46000   2.033861      -0.10717816     3.0501813      2.9430031      0.56362429     0.18518519   
     46100   2.052002      -0.11233727     3.0773874      2.9650501      0.53263611     0.18518519   
     46200   1.9590344     -0.11955411     2.9379639      2.8184098      0.51056814     0.18518519   
     46300   1.9857302     -0.11954101     2.9779996      2.8584586      0.51038425     0.18518519   
     46400   2.0022127     -0.12177621     3.0027184      2.8809422      0.476579       0.18518519   
     46500   2.0465079     -0.11773216     3.0691479      2.9514157      0.53964288     0.18518519   
     46600   1.9923852     -0.11677175     2.9879801      2.8712084      0.55940622     0.18518519   
     46700   2.0239269     -0.10683093     3.0352832      2.9284523      0.5673719      0.18518519   
     46800   1.977773      -0.11161324     2.9660662      2.854453       0.50519025     0.18518519   
     46900   1.9839087     -0.10967008     2.9752679      2.8655978      0.49120142     0.18518519   
     47000   1.9683705     -0.115478       2.9519653      2.8364873      0.54196452     0.18518519   
     47100   2.0068927     -0.12229452     3.009737       2.8874425      0.52649521     0.18518519   
     47200   1.974049      -0.12318459     2.9604813      2.8372967      0.46066869     0.18518519   
     47300   1.9865115     -0.10776637     2.9791712      2.8714049      0.50770233     0.18518519   
     47400   2.0152868     -0.10655887     3.0223256      2.9157667      0.5151782      0.18518519   
     47500   1.9915392     -0.10967706     2.9867113      2.8770342      0.49820056     0.18518519   
     47600   2.0106071     -0.11913066     3.0153075      2.8961768      0.45282444     0.18518519   
     47700   1.9689968     -0.12535299     2.9529045      2.8275515      0.47705735     0.18518519   
     47800   2.0203576     -0.11462264     3.0299303      2.9153077      0.5472945      0.18518519   
     47900   1.9851665     -0.12216522     2.9771542      2.854989       0.4751834      0.18518519   
     48000   1.9628494     -0.1164793      2.9436852      2.8272059      0.50401265     0.18518519   
     48100   1.9901797     -0.11580636     2.9846725      2.8688661      0.53602115     0.18518519   
     48200   1.9819766     -0.1236521      2.9723703      2.8487182      0.49170649     0.18518519   
     48300   2.0057064     -0.11206995     3.0079579      2.895888       0.54159568     0.18518519   
     48400   2.0077343     -0.10464269     3.0109991      2.9063564      0.53630225     0.18518519   
     48500   2.0105478     -0.10988597     3.0152185      2.9053326      0.52505638     0.18518519   
     48600   1.9628492     -0.11431706     2.943685       2.8293679      0.54871899     0.18518519   
     48700   2.006126      -0.11872869     3.0085872      2.8898585      0.51905025     0.18518519   
     48800   1.9738991     -0.12045497     2.9602564      2.8398015      0.48227614     0.18518519   
     48900   2.0323197     -0.11402382     3.0478699      2.933846       0.52182917     0.18518519   
     49000   2.031968      -0.10679593     3.0473424      2.9405464      0.53785669     0.18518519   
     49100   2.0226049     -0.12241058     3.0333006      2.91089        0.49551781     0.18518519   
     49200   2.0011754     -0.1230397      3.0011627      2.878123       0.472466       0.18518519   
     49300   1.9765517     -0.11074977     2.9642346      2.8534848      0.52331252     0.18518519   
     49400   1.9886354     -0.11780197     2.9823566      2.8645546      0.49172247     0.18518519   
     49500   1.9759064     -0.11481611     2.9632668      2.8484507      0.51348544     0.18518519   
     49600   2.0265428     -0.1086749      3.0392062      2.9305313      0.51542308     0.18518519   
     49700   1.9856302     -0.1128906      2.9778497      2.8649591      0.48296447     0.18518519   
     49800   2.0063631     -0.12193511     3.0089427      2.8870076      0.4857559      0.18518519   
     49900   1.9937313     -0.11994462     2.9899988      2.8700541      0.4678076      0.18518519   
     50000   1.96075       -0.12289574     2.9405368      2.817641       0.49821679     0.18518519   
     50100   1.9603173     -0.11889806     2.9398879      2.8209898      0.50938826     0.18518519   
     50200   1.9582145     -0.11775052     2.9367343      2.8189838      0.51985202     0.18518519   
     50300   2.0155198     -0.11165969     3.0226751      2.9110154      0.52489623     0.18518519   
     50400   2.0300458     -0.11522798     3.0444596      2.9292316      0.56293281     0.18518519   
     50500   1.9874646     -0.11849515     2.9806007      2.8621056      0.51877022     0.18518519   
     50600   2.0310818     -0.12099077     3.0460134      2.9250226      0.52254927     0.18518519   
     50700   2.0068614     -0.10769446     3.00969        2.9019955      0.57440957     0.18518519   
     50800   2.0042056     -0.11942276     3.0057072      2.8862844      0.49920698     0.18518519   
     50900   1.981599      -0.1118666      2.971804       2.8599374      0.53046059     0.18518519   
     51000   2.0308072     -0.12392668     3.0456015      2.9216748      0.4908925      0.18518519   
     51100   2.0146098     -0.11868795     3.0213103      2.9026223      0.47831612     0.18518519   
     51200   1.972335      -0.11654239     2.9579107      2.8413684      0.52124251     0.18518519   
     51300   2.0407786     -0.12068756     3.0605556      2.9398681      0.50194336     0.18518519   
     51400   1.987222      -0.12048601     2.9802368      2.8597508      0.50167767     0.18518519   
     51500   2.0046202     -0.11911021     3.006329       2.8872188      0.5003265      0.18518519   
     51600   1.985386      -0.12093681     2.9774834      2.8565466      0.49405213     0.18518519   
     51700   1.982224      -0.11219354     2.9727413      2.8605478      0.5365569      0.18518519   
     51800   1.9856969     -0.11139079     2.9779497      2.8665589      0.49739366     0.18518519   
     51900   2.0254495     -0.10998769     3.0375667      2.927579       0.4954955      0.18518519   
     52000   2.0523113     -0.11931411     3.0778512      2.9585371      0.53601461     0.18518519   
     52100   2.0037067     -0.11392358     3.004959       2.8910354      0.53733947     0.18518519   
     52200   1.98994       -0.12373445     2.984313       2.8605785      0.52077913     0.18518519   
     52300   1.9986282     -0.11593059     2.9973427      2.8814121      0.48587674     0.18518519   
     52400   2.0091352     -0.11590882     3.0131001      2.8971913      0.51238565     0.18518519   
     52500   2.0281583     -0.11785597     3.041629       2.923773       0.50074231     0.18518519   
     52600   2.0028725     -0.11656304     3.0037079      2.8871448      0.51183977     0.18518519   
     52700   2.019544      -0.1135994      3.0287101      2.9151107      0.52473848     0.18518519   
     52800   2.0049602     -0.12213995     3.0068388      2.8846989      0.51285377     0.18518519   
     52900   1.9775768     -0.1190992      2.9657719      2.8466727      0.4636281      0.18518519   
     53000   1.9828213     -0.10973093     2.9736372      2.8639062      0.51351451     0.18518519   
     53100   1.9816861     -0.11142881     2.9719346      2.8605058      0.4916834      0.18518519   
     53200   2.0297407     -0.12243145     3.0440021      2.9215706      0.50751365     0.18518519   
     53300   2.0130769     -0.11751926     3.0190114      2.9014922      0.5240595      0.18518519   
     53400   2.0134962     -0.1182186      3.0196402      2.9014216      0.50646122     0.18518519   
     53500   1.9823702     -0.12729432     2.9729605      2.8456662      0.43308307     0.18518519   
     53600   1.9827792     -0.1213992      2.9735739      2.8521747      0.43917964     0.18518519   
     53700   2.0354769     -0.1253516      3.0526047      2.9272532      0.46033394     0.18518519   
     53800   1.9947213     -0.11768315     2.9914836      2.8738004      0.46941769     0.18518519   
     53900   1.9775616     -0.10738535     2.9657491      2.8583637      0.51197066     0.18518519   
     54000   2.0580495     -0.1182454      3.0864568      2.9682114      0.55149861     0.18518519   
     54100   2.0266124     -0.11380425     3.0393107      2.9255064      0.55239208     0.18518519   
     54200   1.9618504     -0.11965662     2.942187       2.8225304      0.49634038     0.18518519   
     54300   2.032783      -0.1175323      3.0485647      2.9310324      0.53843796     0.18518519   
     54400   1.9875616     -0.11020848     2.9807461      2.8705376      0.4919235      0.18518519   
     54500   1.9666989     -0.11646706     2.9494584      2.8329913      0.49610934     0.18518519   
     54600   1.977069      -0.1033549      2.9650104      2.8616555      0.52587363     0.18518519   
     54700   2.0074993     -0.11169139     3.0106467      2.8989553      0.50110183     0.18518519   
     54800   1.9838198     -0.1138313      2.9751345      2.8613032      0.49134571     0.18518519   
     54900   2.0334502     -0.12477301     3.0495653      2.9247923      0.4891057      0.18518519   
     55000   2.0564168     -0.10640022     3.0840082      2.977608       0.50185732     0.18518519   
     55100   1.970241      -0.11988612     2.9547705      2.8348843      0.46324871     0.18518519   
     55200   2.0155861     -0.10743308     3.0227745      2.9153414      0.56834541     0.18518519   
     55300   1.9600675     -0.11092016     2.9395133      2.8285931      0.51867418     0.18518519   
     55400   1.997948      -0.11860993     2.9963226      2.8777127      0.47843264     0.18518519   
     55500   2.0428875     -0.1145089      3.0637184      2.9492095      0.51071628     0.18518519   
     55600   2.0310371     -0.11043605     3.0459463      2.9355102      0.55254489     0.18518519   
     55700   1.9694521     -0.12185327     2.9535874      2.8317341      0.45258964     0.18518519   
     55800   2.0054806     -0.11817215     3.0076192      2.8894471      0.50675162     0.18518519   
     55900   2.0111066     -0.10101604     3.0160566      2.9150406      0.5507084      0.18518519   
     56000   1.9858689     -0.10673286     2.9782076      2.8714748      0.54794752     0.18518519   
     56100   1.9849278     -0.11649543     2.9767962      2.8603008      0.44604026     0.18518519   
     56200   1.9799872     -0.1166761      2.9693868      2.8527107      0.51054241     0.18518519   
     56300   1.9739274     -0.11367351     2.9602989      2.8466254      0.5176575      0.18518519   
     56400   1.9978485     -0.11720154     2.9961733      2.8789718      0.49560746     0.18518519   
     56500   2.0168501     -0.11602369     3.02467        2.9086463      0.50932017     0.18518519   
     56600   1.9893777     -0.11181368     2.9834698      2.8716561      0.5216854      0.18518519   
     56700   2.0022686     -0.11466443     3.0028022      2.8881378      0.53057543     0.18518519   
     56800   2.0155106     -0.11758351     3.0226612      2.9050777      0.52134255     0.18518519   
     56900   2.0193124     -0.122293       3.0283629      2.9060698      0.48729445     0.18518519   
     57000   1.9916643     -0.11507051     2.9868989      2.8718284      0.48245585     0.18518519   
     57100   2.0073064     -0.12096051     3.0103574      2.8893968      0.52195635     0.18518519   
     57200   2.0134845     -0.11717101     3.0196227      2.9024516      0.52481422     0.18518519   
     57300   1.9753232     -0.11613866     2.9623922      2.8462535      0.4841712      0.18518519   
     57400   1.9962695     -0.11095945     2.9938053      2.8828459      0.49983091     0.18518519   
     57500   2.0210794     -0.11448133     3.0310128      2.9165315      0.49449946     0.18518519   
     57600   1.9593205     -0.11697732     2.938393       2.8214157      0.55324827     0.18518519   
     57700   1.9696175     -0.12018634     2.9538353      2.833649       0.4848125      0.18518519   
     57800   2.0057072     -0.11413759     3.007959       2.8938214      0.51550188     0.18518519   
     57900   1.9801033     -0.10851412     2.9695609      2.8610468      0.55676994     0.18518519   
     58000   1.9697847     -0.11294439     2.9540862      2.8411418      0.55366498     0.18518519   
     58100   2.0066721     -0.11972941     3.0094061      2.8896767      0.45796546     0.18518519   
     58200   2.0026595     -0.12501112     3.0033885      2.8783774      0.47615606     0.18518519   
     58300   1.9617596     -0.11119131     2.9420509      2.8308596      0.5277078      0.18518519   
     58400   2.0003324     -0.11092013     2.9998985      2.8889784      0.53297869     0.18518519   
     58500   2.0353436     -0.11019227     3.0524048      2.9422125      0.52262902     0.18518519   
     58600   1.9787918     -0.11522362     2.9675941      2.8523705      0.50782073     0.18518519   
     58700   2.0117091     -0.12000157     3.0169602      2.8969586      0.53122212     0.18518519   
     58800   2.0147454     -0.11980953     3.0215137      2.9017042      0.47680288     0.18518519   
     58900   1.9945567     -0.11462237     2.9912367      2.8766143      0.51017448     0.18518519   
     59000   2.0081084     -0.11060048     3.0115602      2.9009597      0.54713613     0.18518519   
     59100   1.9893675     -0.11158787     2.9834544      2.8718665      0.53720332     0.18518519   
     59200   1.9935622     -0.11544478     2.9897452      2.8743004      0.49940843     0.18518519   
     59300   2.0491913     -0.10849825     3.0731722      2.9646739      0.56884649     0.18518519   
     59400   1.9609876     -0.12433089     2.9408931      2.8165622      0.48649805     0.18518519   
     59500   1.9482419     -0.11229631     2.9217784      2.8094821      0.51083339     0.18518519   
     59600   1.9730604     -0.11568911     2.9589987      2.8433096      0.5059027      0.18518519   
     59700   2.00002       -0.10192736     2.99943        2.8975026      0.56819967     0.18518519   
     59800   1.9966758     -0.12237166     2.9944147      2.8720431      0.51681        0.18518519   
     59900   2.0209607     -0.11363334     3.0308348      2.9172014      0.48988108     0.18518519   
     60000   2.0359188     -0.11039923     3.0532674      2.9428682      0.5247627      0.18518519   
     60100   1.9907072     -0.11932707     2.9854636      2.8661365      0.49375978     0.18518519   
     60200   1.9851622     -0.11630535     2.9771477      2.8608424      0.52748781     0.18518519   
     60300   2.0356955     -0.11906352     3.0529325      2.933869       0.50674347     0.18518519   
     60400   2.0052694     -0.12026638     3.0073025      2.8870362      0.48101363     0.18518519   
     60500   1.9943174     -0.12019738     2.9908779      2.8706805      0.48307687     0.18518519   
     60600   1.9891216     -0.11957315     2.9830857      2.8635125      0.5067442      0.18518519   
     60700   1.9804647     -0.1079214      2.9701029      2.8621815      0.53075043     0.18518519   
     60800   2.0191632     -0.12407103     3.0281391      2.9040681      0.440862       0.18518519   
     60900   1.9726317     -0.12317222     2.9583558      2.8351836      0.43992632     0.18518519   
     61000   1.9910589     -0.12033847     2.9859911      2.8656526      0.48144069     0.18518519   
     61100   1.9760546     -0.11684073     2.9634891      2.8466484      0.5050486      0.18518519   
     61200   2.0156661     -0.12119713     3.0228945      2.9016974      0.50536771     0.18518519   
     61300   1.9890809     -0.128058       2.9830246      2.8549666      0.50289902     0.18518519   
     61400   2.0139482     -0.11361008     3.0203181      2.906708       0.49025678     0.18518519   
     61500   2.0361338     -0.11189029     3.0535899      2.9416996      0.5864269      0.18518519   
     61600   2.008473      -0.12983624     3.0121069      2.8822707      0.46665332     0.18518519   
     61700   2.0113454     -0.11358788     3.0164148      2.9028269      0.51410906     0.18518519   
     61800   2.0218087     -0.1198167      3.0321066      2.9122899      0.5188332      0.18518519   
     61900   2.0220736     -0.1174563      3.0325037      2.9150474      0.49866215     0.18518519   
     62000   1.9985971     -0.11641893     2.9972961      2.8808772      0.47316433     0.18518519   
     62100   2.0308635     -0.11382609     3.0456861      2.93186        0.53524388     0.18518519   
     62200   1.9974175     -0.11305455     2.9955271      2.8824725      0.51509976     0.18518519   
     62300   2.0344283     -0.11852612     3.0510321      2.9325059      0.48182022     0.18518519   
     62400   2.0226774     -0.11863298     3.0334093      2.9147763      0.53891457     0.18518519   
     62500   1.989406      -0.10769136     2.9835122      2.8758208      0.55693203     0.18518519   
     62600   2.0290923     -0.11435482     3.0430297      2.9286749      0.5529815      0.18518519   
     62700   2.0207856     -0.12049161     3.0305722      2.9100806      0.48276989     0.18518519   
     62800   1.9887404     -0.10997261     2.9825141      2.8725414      0.52891225     0.18518519   
     62900   1.9735892     -0.11751437     2.9597917      2.8422774      0.50002078     0.18518519   
     63000   2.0072259     -0.11028375     3.0102367      2.8999529      0.47685504     0.18518519   
     63100   1.9955415     -0.11904035     2.9927136      2.8736733      0.5273744      0.18518519   
     63200   2.0050422     -0.11161337     3.0069618      2.8953485      0.51314212     0.18518519   
     63300   1.9992817     -0.1189606      2.9983227      2.8793621      0.49438601     0.18518519   
     63400   2.0091589     -0.10791326     3.0131356      2.9052223      0.53437154     0.18518519   
     63500   2.0046258     -0.10756166     3.0063373      2.8987756      0.56350258     0.18518519   
     63600   2.0076633     -0.11307674     3.0108927      2.897816       0.51748542     0.18518519   
     63700   1.9882624     -0.11938795     2.9817972      2.8624092      0.49778578     0.18518519   
     63800   1.9890937     -0.11403307     2.9830438      2.8690107      0.49988291     0.18518519   
     63900   1.9653359     -0.1082349      2.9474143      2.8391794      0.51632408     0.18518519   
     64000   2.0430185     -0.11571724     3.0639148      2.9481975      0.5333799      0.18518519   
     64100   2.0045947     -0.11981786     3.0062906      2.8864728      0.49966419     0.18518519   
     64200   2.0092403     -0.11374481     3.0132576      2.8995128      0.51214656     0.18518519   
     64300   1.9717116     -0.11093573     2.9569759      2.8460402      0.48474334     0.18518519   
     64400   1.9818929     -0.11586102     2.9722447      2.8563837      0.50618054     0.18518519   
     64500   2.0009913     -0.10782136     3.0008867      2.8930653      0.53673675     0.18518519   
     64600   2.0037879     -0.11786492     3.0050806      2.8872157      0.50186826     0.18518519   
     64700   2.0352223     -0.10642011     3.0522228      2.9458027      0.55923592     0.18518519   
     64800   2.0258433     -0.10750534     3.0381573      2.9306519      0.53323197     0.18518519   
     64900   2.0288954     -0.11517149     3.0427345      2.927563       0.48662678     0.18518519   
     65000   2.0136923     -0.11772644     3.0199343      2.9022079      0.48317272     0.18518519   
     65100   1.9904302     -0.11416083     2.9850481      2.8708873      0.49474357     0.18518519   
     65200   2.0025208     -0.11001061     3.0031804      2.8931698      0.50256429     0.18518519   
     65300   2.0338875     -0.12089434     3.0502212      2.9293268      0.4734411      0.18518519   
     65400   2.0181415     -0.1142854      3.0266069      2.9123215      0.47566921     0.18518519   
     65500   1.9876626     -0.12504434     2.9808976      2.8558533      0.50894325     0.18518519   
     65600   1.9894015     -0.11811598     2.9835055      2.8653895      0.50855816     0.18518519   
     65700   1.9840821     -0.11172406     2.975528       2.8638039      0.49610079     0.18518519   
     65800   2.0181633     -0.12014219     3.0266395      2.9064973      0.52386488     0.18518519   
     65900   2.0400911     -0.11760356     3.0595247      2.9419211      0.53301513     0.18518519   
     66000   1.9796453     -0.10909333     2.9688741      2.8597807      0.48915013     0.18518519   
     66100   2.0477979     -0.11822245     3.0710825      2.9528601      0.52740255     0.18518519   
     66200   2.0076316     -0.11688191     3.010845       2.8939631      0.53908005     0.18518519   
     66300   2.0054902     -0.11924467     3.0076337      2.888389       0.49114818     0.18518519   
     66400   1.9348406     -0.10516924     2.9016805      2.7965113      0.50800955     0.18518519   
     66500   1.9963466     -0.11258997     2.993921       2.8813311      0.50755844     0.18518519   
     66600   2.0328046     -0.1171674      3.0485971      2.9314297      0.5037541      0.18518519   
     66700   1.9944742     -0.10375636     2.9911129      2.8873566      0.56352165     0.18518519   
     66800   2.0063562     -0.11347884     3.0089324      2.8954535      0.50981187     0.18518519   
     66900   1.9973234     -0.11203824     2.995386       2.8833477      0.48810861     0.18518519   
     67000   2.0131388     -0.11684382     3.0191043      2.9022605      0.50419231     0.18518519   
     67100   1.9689807     -0.11533428     2.9528803      2.837546       0.51245343     0.18518519   
     67200   2.0238934     -0.11380848     3.0352329      2.9214244      0.53661059     0.18518519   
     67300   1.9706112     -0.11820078     2.9553256      2.8371248      0.51456542     0.18518519   
     67400   1.9936071     -0.11206989     2.9898126      2.8777427      0.55426681     0.18518519   
     67500   2.0251365     -0.11487796     3.0370973      2.9222193      0.49614188     0.18518519   
     67600   1.9708626     -0.11153086     2.9557027      2.8441718      0.50369167     0.18518519   
     67700   1.9974084     -0.11093291     2.9955134      2.8845805      0.51051224     0.18518519   
     67800   2.0204048     -0.10949442     3.0300011      2.9205067      0.52227478     0.18518519   
     67900   2.0144605     -0.10131244     3.0210864      2.919774       0.57430844     0.18518519   
     68000   2.0145643     -0.12098478     3.0212421      2.9002573      0.4736367      0.18518519   
     68100   1.9877789     -0.11462981     2.9810721      2.8664422      0.50344249     0.18518519   
     68200   1.983077      -0.11389502     2.9740206      2.8601256      0.46427308     0.18518519   
     68300   2.0180328     -0.11283519     3.0264437      2.9136085      0.53377122     0.18518519   
     68400   2.0378751     -0.11926829     3.0562012      2.9369329      0.50809982     0.18518519   
     68500   2.0186857     -0.11536074     3.027423       2.9120623      0.50868457     0.18518519   
     68600   1.9800921     -0.10965305     2.9695441      2.859891       0.50437007     0.18518519   
     68700   2.0105052     -0.11267451     3.0151546      2.9024801      0.51044414     0.18518519   
     68800   1.9950577     -0.1244973      2.991988       2.8674907      0.49137398     0.18518519   
     68900   1.9913223     -0.12116261     2.9863861      2.8652235      0.47639703     0.18518519   
     69000   2.0183122     -0.12139713     3.0268629      2.9054657      0.50729158     0.18518519   
     69100   1.993145      -0.10735275     2.9891195      2.8817668      0.56852742     0.18518519   
     69200   1.9950644     -0.1112299      2.9919981      2.8807682      0.53264667     0.18518519   
     69300   2.0288293     -0.12046382     3.0426352      2.9221714      0.48077762     0.18518519   
     69400   1.9742013     -0.12032997     2.9607097      2.8403798      0.51150273     0.18518519   
     69500   1.9498919     -0.11928199     2.9242529      2.8049709      0.47760387     0.18518519   
     69600   1.9907278     -0.11886521     2.9854945      2.8666293      0.50049246     0.18518519   
     69700   1.9950569     -0.11755225     2.9919869      2.8744346      0.53241904     0.18518519   
     69800   2.0399435     -0.11245229     3.0593033      2.946851       0.53058644     0.18518519   
     69900   2.0163383     -0.12179979     3.0239025      2.9021027      0.45675203     0.18518519   
     70000   1.9869879     -0.10778794     2.9798857      2.8720978      0.48835937     0.18518519   
     70100   2.0026067     -0.11891601     3.0033092      2.8843932      0.5082748      0.18518519   
     70200   2.0280017     -0.10835998     3.0413941      2.9330341      0.52315001     0.18518519   
     70300   2.0317166     -0.1150785      3.0469653      2.9318868      0.52854955     0.18518519   
     70400   2.0127442     -0.12369062     3.0185125      2.8948219      0.50158099     0.18518519   
     70500   2.0329477     -0.11288722     3.0488117      2.9359245      0.51768006     0.18518519   
     70600   2.0587611     -0.11395377     3.0875241      2.9735703      0.52483272     0.18518519   
     70700   2.0489057     -0.11834701     3.0727439      2.9543969      0.52917976     0.18518519   
     70800   2.0047174     -0.12294345     3.0064748      2.8835313      0.49308555     0.18518519   
     70900   2.0023175     -0.11302362     3.0028755      2.8898519      0.51584836     0.18518519   
     71000   1.9766119     -0.11339518     2.9643248      2.8509297      0.53314192     0.18518519   
     71100   1.9801799     -0.1173683      2.9696759      2.8523076      0.50508812     0.18518519   
     71200   1.9978618     -0.12376672     2.9961933      2.8724266      0.48003786     0.18518519   
     71300   1.9896597     -0.12081262     2.9838927      2.86308        0.56370795     0.18518519   
     71400   1.9950663     -0.12108956     2.9920009      2.8709114      0.46768616     0.18518519   
     71500   1.9909478     -0.11808838     2.9858245      2.8677361      0.49637888     0.18518519   
     71600   2.0278889     -0.12425925     3.041225       2.9169658      0.47515349     0.18518519   
     71700   2.0115479     -0.11146201     3.0167184      2.9052564      0.51020081     0.18518519   
     71800   2.0238045     -0.11988752     3.0350997      2.9152122      0.48824314     0.18518519   
     71900   1.9700007     -0.11773059     2.9544101      2.8366795      0.46432995     0.18518519   
     72000   1.9902084     -0.11664521     2.9847156      2.8680704      0.48223855     0.18518519   
     72100   1.996167      -0.12658022     2.9936517      2.8670715      0.48996674     0.18518519   
     72200   1.973707      -0.1172854      2.9599685      2.8426831      0.52675569     0.18518519   
     72300   1.9984827     -0.11606083     2.9971245      2.8810637      0.51378146     0.18518519   
     72400   2.0317398     -0.10027        3.0470002      2.9467302      0.55636807     0.18518519   
     72500   2.0394188     -0.1268612      3.0585164      2.9316552      0.46047918     0.18518519   
     72600   2.0403989     -0.10678883     3.0599863      2.9531974      0.53920032     0.18518519   
     72700   1.9812135     -0.11561853     2.9712258      2.8556073      0.49718025     0.18518519   
     72800   2.0351185     -0.11700952     3.0520672      2.9350577      0.49392365     0.18518519   
     72900   2.0311003     -0.12250413     3.0460411      2.9235369      0.49936743     0.18518519   
     73000   1.9895538     -0.11903302     2.9837338      2.8647008      0.50017188     0.18518519   
     73100   1.9479768     -0.10897102     2.9213808      2.8124098      0.5412798      0.18518519   
     73200   1.995413      -0.12227046     2.9925208      2.8702504      0.47658246     0.18518519   
     73300   1.9810975     -0.11287005     2.9710519      2.8581818      0.49497697     0.18518519   
     73400   2.0284269     -0.12567998     3.0420318      2.9163519      0.47617131     0.18518519   
     73500   1.9974316     -0.10691872     2.9955481      2.8886294      0.53784515     0.18518519   
     73600   1.9944428     -0.11837188     2.9910658      2.8726939      0.5181773      0.18518519   
     73700   2.0335806     -0.10883238     3.0497608      2.9409285      0.52474376     0.18518519   
     73800   1.9804067     -0.12032439     2.970016       2.8496916      0.49793956     0.18518519   
     73900   1.9877454     -0.1232524      2.9810218      2.8577694      0.47526229     0.18518519   
     74000   1.9976014     -0.12065586     2.9958028      2.8751469      0.50955501     0.18518519   
     74100   1.992502      -0.11399887     2.9881552      2.8741563      0.48833188     0.18518519   
     74200   2.0059219     -0.11889896     3.008281       2.8893821      0.46386807     0.18518519   
     74300   2.0059955     -0.10768174     3.0083914      2.9007097      0.52236983     0.18518519   
     74400   2.0163079     -0.11402414     3.0238569      2.9098328      0.52939182     0.18518519   
     74500   1.9842477     -0.10123799     2.9757763      2.8745384      0.55068878     0.18518519   
     74600   1.9849411     -0.11498943     2.9768162      2.8618268      0.51952398     0.18518519   
     74700   1.9893786     -0.11299951     2.9834711      2.8704716      0.52560789     0.18518519   
     74800   2.0059989     -0.10684201     3.0083965      2.9015545      0.53998491     0.18518519   
     74900   1.9506287     -0.11022027     2.9253579      2.8151376      0.52457692     0.18518519   
     75000   1.9778244     -0.11982709     2.9661432      2.8463161      0.50572306     0.18518519   
     75100   1.9958573     -0.11513345     2.9931871      2.8780537      0.54886094     0.18518519   
     75200   1.968669      -0.10645133     2.952413       2.8459616      0.5330389      0.18518519   
     75300   2.0279736     -0.11631715     3.0413521      2.9250349      0.51322258     0.18518519   
     75400   1.9812616     -0.11455422     2.971298       2.8567438      0.51313066     0.18518519   
     75500   2.0364246     -0.12098342     3.0540259      2.9330425      0.52112263     0.18518519   
     75600   2.006933      -0.11867016     3.0097974      2.8911272      0.53545551     0.18518519   
     75700   2.0097398     -0.1191135      3.0140068      2.8948933      0.54412531     0.18518519   
     75800   1.9995687     -0.11407893     2.9987532      2.8846742      0.53994557     0.18518519   
     75900   2.0128703     -0.11388992     3.0187017      2.9048117      0.52497651     0.18518519   
     76000   2.0383889     -0.12331082     3.0569718      2.9336609      0.5093329      0.18518519   
ERROR: Lost atoms: original 5000 current 4991 (../thermo.cpp:490)
Last command: run             1000000
