# LAMMPS input script: FCC solid to liquid using WCA potential

units           lj
atom_style      atomic
dimension       3
boundary        p p p

# Create FCC lattice
lattice         fcc 0.8442
region          box block 0 8 0 8 0 8
create_box      1 box
create_atoms    1 box

mass            1 1.0

# WCA potential (LJ cutoff at 2^(1/6) sigma)
pair_style      lj/cut 1.12246
pair_coeff      1 1 1.0 1.0 1.12246

neighbor        0.3 bin
neigh_modify    every 1 delay 0 check yes

velocity        all create 0.5 87287 loop geom

fix             1 all nvt temp 0.5 2.0 1.0

thermo          100
thermo_style    custom step temp pe ke etotal press

timestep        0.005

# Melt to liquid
fix             2 all nvt temp 2.0 2.0 1.0
unfix           1

dump            1 all atom 100 dump.melt.lammpstrj

run             2000

